(set-logic HORN)
(declare-datatypes ((Bool_0 0)) (((false_0 ) (true_0 ))))
(declare-fun diseqBool_0 (Bool_0 Bool_0) Bool)
(declare-fun and_0 (Bool_0 Bool_0 Bool_0) Bool)
(declare-fun or_0 (Bool_0 Bool_0 Bool_0) Bool)
(declare-datatypes ((A_0 0)) (((X_0 ) (Y_0 ))))
(declare-datatypes ((R_0 0)) (((Nil_0 ) (Eps_0 ) (Atom_0 (projAtom_0 A_0)) (Plus_0 (projPlus_0 R_0) (projPlus_1 R_0)) (Seq_0 (projSeq_0 R_0) (projSeq_1 R_0)) (Star_0 (projStar_0 R_0)))))
(declare-datatypes ((list_0 0)) (((nil_1 ) (cons_0 (head_0 A_0) (tail_0 list_0)))))
(declare-fun seq_1 (R_0 R_0 R_0) Bool)
(declare-fun plus_1 (R_0 R_0 R_0) Bool)
(declare-fun eqA_0 (Bool_0 A_0 A_0) Bool)
(declare-fun eps_1 (Bool_0 R_0) Bool)
(declare-fun epsR_0 (R_0 R_0) Bool)
(declare-fun step_0 (R_0 R_0 A_0) Bool)
(declare-fun recognise_0 (Bool_0 R_0 list_0) Bool)
(declare-fun deeps_0 (R_0 R_0) Bool)
(assert (diseqBool_0 false_0 true_0))
(assert (diseqBool_0 true_0 false_0))
(assert (and_0 false_0 false_0 false_0))
(assert (and_0 false_0 true_0 false_0))
(assert (and_0 false_0 false_0 true_0))
(assert (and_0 true_0 true_0 true_0))
(assert (or_0 false_0 false_0 false_0))
(assert (or_0 true_0 true_0 false_0))
(assert (or_0 true_0 false_0 true_0))
(assert (or_0 true_0 true_0 true_0))
(assert (forall ((y_1 R_0))
	(seq_1 Nil_0 Nil_0 y_1)))
(assert (forall ((x_2 R_0) (x_245 A_0))
	(seq_1 Nil_0 (Atom_0 x_245) Nil_0)))
(assert (forall ((x_2 R_0))
	(seq_1 Nil_0 Eps_0 Nil_0)))
(assert (forall ((x_2 R_0) (x_246 R_0) (x_247 R_0))
	(seq_1 Nil_0 (Plus_0 x_246 x_247) Nil_0)))
(assert (forall ((x_2 R_0) (x_248 R_0) (x_249 R_0))
	(seq_1 Nil_0 (Seq_0 x_248 x_249) Nil_0)))
(assert (forall ((x_2 R_0) (x_250 R_0))
	(seq_1 Nil_0 (Star_0 x_250) Nil_0)))
(assert (forall ((x_3 R_0) (x_59 A_0) (x_2 R_0))
	(seq_1 (Atom_0 x_59) Eps_0 (Atom_0 x_59))))
(assert (forall ((x_3 R_0) (x_2 R_0))
	(seq_1 Eps_0 Eps_0 Eps_0)))
(assert (forall ((x_3 R_0) (x_60 R_0) (x_61 R_0) (x_2 R_0))
	(seq_1 (Plus_0 x_60 x_61) Eps_0 (Plus_0 x_60 x_61))))
(assert (forall ((x_3 R_0) (x_62 R_0) (x_63 R_0) (x_2 R_0))
	(seq_1 (Seq_0 x_62 x_63) Eps_0 (Seq_0 x_62 x_63))))
(assert (forall ((x_3 R_0) (x_64 R_0) (x_2 R_0))
	(seq_1 (Star_0 x_64) Eps_0 (Star_0 x_64))))
(assert (forall ((x_4 R_0) (x_23 A_0) (x_3 R_0) (x_2 R_0))
	(seq_1 (Atom_0 x_23) (Atom_0 x_23) Eps_0)))
(assert (forall ((x_4 R_0) (x_24 R_0) (x_25 R_0) (x_3 R_0) (x_2 R_0))
	(seq_1 (Plus_0 x_24 x_25) (Plus_0 x_24 x_25) Eps_0)))
(assert (forall ((x_4 R_0) (x_26 R_0) (x_27 R_0) (x_3 R_0) (x_2 R_0))
	(seq_1 (Seq_0 x_26 x_27) (Seq_0 x_26 x_27) Eps_0)))
(assert (forall ((x_4 R_0) (x_28 R_0) (x_3 R_0) (x_2 R_0))
	(seq_1 (Star_0 x_28) (Star_0 x_28) Eps_0)))
(assert (forall ((x_5 R_0) (x_17 A_0) (x_4 R_0) (x_29 A_0) (x_3 R_0) (x_2 R_0))
	(seq_1 (Seq_0 (Atom_0 x_29) (Atom_0 x_17)) (Atom_0 x_29) (Atom_0 x_17))))
(assert (forall ((x_5 R_0) (x_4 R_0) (x_30 R_0) (x_31 R_0) (x_3 R_0) (x_107 A_0) (x_2 R_0))
	(seq_1 (Seq_0 (Plus_0 x_30 x_31) (Atom_0 x_107)) (Plus_0 x_30 x_31) (Atom_0 x_107))))
(assert (forall ((x_5 R_0) (x_4 R_0) (x_32 R_0) (x_33 R_0) (x_3 R_0) (x_113 A_0) (x_2 R_0))
	(seq_1 (Seq_0 (Seq_0 x_32 x_33) (Atom_0 x_113)) (Seq_0 x_32 x_33) (Atom_0 x_113))))
(assert (forall ((x_5 R_0) (x_4 R_0) (x_34 R_0) (x_3 R_0) (x_119 A_0) (x_2 R_0))
	(seq_1 (Seq_0 (Star_0 x_34) (Atom_0 x_119)) (Star_0 x_34) (Atom_0 x_119))))
(assert (forall ((x_5 R_0) (x_4 R_0) (x_41 A_0) (x_3 R_0) (x_156 R_0) (x_157 R_0) (x_2 R_0))
	(seq_1 (Seq_0 (Atom_0 x_41) (Plus_0 x_156 x_157)) (Atom_0 x_41) (Plus_0 x_156 x_157))))
(assert (forall ((x_5 R_0) (x_4 R_0) (x_42 R_0) (x_43 R_0) (x_3 R_0) (x_168 R_0) (x_169 R_0) (x_2 R_0))
	(seq_1 (Seq_0 (Plus_0 x_42 x_43) (Plus_0 x_168 x_169)) (Plus_0 x_42 x_43) (Plus_0 x_168 x_169))))
(assert (forall ((x_5 R_0) (x_4 R_0) (x_44 R_0) (x_45 R_0) (x_3 R_0) (x_174 R_0) (x_175 R_0) (x_2 R_0))
	(seq_1 (Seq_0 (Seq_0 x_44 x_45) (Plus_0 x_174 x_175)) (Seq_0 x_44 x_45) (Plus_0 x_174 x_175))))
(assert (forall ((x_5 R_0) (x_18 R_0) (x_4 R_0) (x_46 R_0) (x_3 R_0) (x_181 R_0) (x_2 R_0))
	(seq_1 (Seq_0 (Star_0 x_46) (Plus_0 x_18 x_181)) (Star_0 x_46) (Plus_0 x_18 x_181))))
(assert (forall ((x_5 R_0) (x_4 R_0) (x_47 A_0) (x_3 R_0) (x_188 R_0) (x_189 R_0) (x_2 R_0))
	(seq_1 (Seq_0 (Atom_0 x_47) (Seq_0 x_188 x_189)) (Atom_0 x_47) (Seq_0 x_188 x_189))))
(assert (forall ((x_5 R_0) (x_20 R_0) (x_4 R_0) (x_48 R_0) (x_49 R_0) (x_3 R_0) (x_201 R_0) (x_2 R_0))
	(seq_1 (Seq_0 (Plus_0 x_48 x_49) (Seq_0 x_20 x_201)) (Plus_0 x_48 x_49) (Seq_0 x_20 x_201))))
(assert (forall ((x_5 R_0) (x_20 R_0) (x_4 R_0) (x_50 R_0) (x_51 R_0) (x_3 R_0) (x_207 R_0) (x_2 R_0))
	(seq_1 (Seq_0 (Seq_0 x_50 x_51) (Seq_0 x_20 x_207)) (Seq_0 x_50 x_51) (Seq_0 x_20 x_207))))
(assert (forall ((x_5 R_0) (x_20 R_0) (x_21 R_0) (x_4 R_0) (x_3 R_0) (x_2 R_0) (x_1024 R_0))
	(seq_1 (Seq_0 (Star_0 x_1024) (Seq_0 x_20 x_21)) (Star_0 x_1024) (Seq_0 x_20 x_21))))
(assert (forall ((x_5 R_0) (x_22 R_0) (x_4 R_0) (x_3 R_0) (x_2 R_0) (x_1055 A_0))
	(seq_1 (Seq_0 (Atom_0 x_1055) (Star_0 x_22)) (Atom_0 x_1055) (Star_0 x_22))))
(assert (forall ((x_5 R_0) (x_22 R_0) (x_4 R_0) (x_3 R_0) (x_2 R_0) (x_1116 R_0) (x_1117 R_0))
	(seq_1 (Seq_0 (Plus_0 x_1116 x_1117) (Star_0 x_22)) (Plus_0 x_1116 x_1117) (Star_0 x_22))))
(assert (forall ((x_5 R_0) (x_22 R_0) (x_4 R_0) (x_3 R_0) (x_2 R_0) (x_1148 R_0) (x_1149 R_0))
	(seq_1 (Seq_0 (Seq_0 x_1148 x_1149) (Star_0 x_22)) (Seq_0 x_1148 x_1149) (Star_0 x_22))))
(assert (forall ((x_5 R_0) (x_22 R_0) (x_4 R_0) (x_3 R_0) (x_2 R_0) (x_1180 R_0))
	(seq_1 (Seq_0 (Star_0 x_1180) (Star_0 x_22)) (Star_0 x_1180) (Star_0 x_22))))
(assert (forall ((x_2005 R_0))
	(plus_1 x_2005 Nil_0 x_2005)))
(assert (forall ((x_7 R_0) (x_1187 A_0))
	(plus_1 (Atom_0 x_1187) (Atom_0 x_1187) Nil_0)))
(assert (forall ((x_7 R_0))
	(plus_1 Eps_0 Eps_0 Nil_0)))
(assert (forall ((x_7 R_0) (x_1188 R_0) (x_1189 R_0))
	(plus_1 (Plus_0 x_1188 x_1189) (Plus_0 x_1188 x_1189) Nil_0)))
(assert (forall ((x_7 R_0) (x_1190 R_0) (x_1191 R_0))
	(plus_1 (Seq_0 x_1190 x_1191) (Seq_0 x_1190 x_1191) Nil_0)))
(assert (forall ((x_7 R_0) (x_1192 R_0))
	(plus_1 (Star_0 x_1192) (Star_0 x_1192) Nil_0)))
(assert (forall ((x_8 R_0) (x_1181 A_0) (x_7 R_0) (x_1193 A_0))
	(plus_1 (Plus_0 (Atom_0 x_1193) (Atom_0 x_1181)) (Atom_0 x_1193) (Atom_0 x_1181))))
(assert (forall ((x_8 R_0) (x_1181 A_0) (x_7 R_0))
	(plus_1 (Plus_0 Eps_0 (Atom_0 x_1181)) Eps_0 (Atom_0 x_1181))))
(assert (forall ((x_8 R_0) (x_1181 A_0) (x_7 R_0) (x_1194 R_0) (x_1195 R_0))
	(plus_1 (Plus_0 (Plus_0 x_1194 x_1195) (Atom_0 x_1181)) (Plus_0 x_1194 x_1195) (Atom_0 x_1181))))
(assert (forall ((x_8 R_0) (x_1181 A_0) (x_7 R_0) (x_1196 R_0) (x_1197 R_0))
	(plus_1 (Plus_0 (Seq_0 x_1196 x_1197) (Atom_0 x_1181)) (Seq_0 x_1196 x_1197) (Atom_0 x_1181))))
(assert (forall ((x_8 R_0) (x_1181 A_0) (x_7 R_0) (x_1198 R_0))
	(plus_1 (Plus_0 (Star_0 x_1198) (Atom_0 x_1181)) (Star_0 x_1198) (Atom_0 x_1181))))
(assert (forall ((x_8 R_0) (x_7 R_0) (x_1199 A_0))
	(plus_1 (Plus_0 (Atom_0 x_1199) Eps_0) (Atom_0 x_1199) Eps_0)))
(assert (forall ((x_8 R_0) (x_7 R_0))
	(plus_1 (Plus_0 Eps_0 Eps_0) Eps_0 Eps_0)))
(assert (forall ((x_8 R_0) (x_7 R_0) (x_1200 R_0) (x_1201 R_0))
	(plus_1 (Plus_0 (Plus_0 x_1200 x_1201) Eps_0) (Plus_0 x_1200 x_1201) Eps_0)))
(assert (forall ((x_8 R_0) (x_7 R_0) (x_1202 R_0) (x_1203 R_0))
	(plus_1 (Plus_0 (Seq_0 x_1202 x_1203) Eps_0) (Seq_0 x_1202 x_1203) Eps_0)))
(assert (forall ((x_8 R_0) (x_7 R_0) (x_1204 R_0))
	(plus_1 (Plus_0 (Star_0 x_1204) Eps_0) (Star_0 x_1204) Eps_0)))
(assert (forall ((x_8 R_0) (x_1182 R_0) (x_1183 R_0) (x_7 R_0) (x_1205 A_0))
	(plus_1 (Plus_0 (Atom_0 x_1205) (Plus_0 x_1182 x_1183)) (Atom_0 x_1205) (Plus_0 x_1182 x_1183))))
(assert (forall ((x_8 R_0) (x_1182 R_0) (x_1183 R_0) (x_7 R_0))
	(plus_1 (Plus_0 Eps_0 (Plus_0 x_1182 x_1183)) Eps_0 (Plus_0 x_1182 x_1183))))
(assert (forall ((x_8 R_0) (x_1182 R_0) (x_1183 R_0) (x_7 R_0) (x_1206 R_0) (x_1207 R_0))
	(plus_1 (Plus_0 (Plus_0 x_1206 x_1207) (Plus_0 x_1182 x_1183)) (Plus_0 x_1206 x_1207) (Plus_0 x_1182 x_1183))))
(assert (forall ((x_8 R_0) (x_1182 R_0) (x_1183 R_0) (x_7 R_0) (x_1208 R_0) (x_1209 R_0))
	(plus_1 (Plus_0 (Seq_0 x_1208 x_1209) (Plus_0 x_1182 x_1183)) (Seq_0 x_1208 x_1209) (Plus_0 x_1182 x_1183))))
(assert (forall ((x_8 R_0) (x_1182 R_0) (x_1183 R_0) (x_7 R_0) (x_1210 R_0))
	(plus_1 (Plus_0 (Star_0 x_1210) (Plus_0 x_1182 x_1183)) (Star_0 x_1210) (Plus_0 x_1182 x_1183))))
(assert (forall ((x_8 R_0) (x_1184 R_0) (x_1185 R_0) (x_7 R_0) (x_1211 A_0))
	(plus_1 (Plus_0 (Atom_0 x_1211) (Seq_0 x_1184 x_1185)) (Atom_0 x_1211) (Seq_0 x_1184 x_1185))))
(assert (forall ((x_8 R_0) (x_1184 R_0) (x_1185 R_0) (x_7 R_0))
	(plus_1 (Plus_0 Eps_0 (Seq_0 x_1184 x_1185)) Eps_0 (Seq_0 x_1184 x_1185))))
(assert (forall ((x_8 R_0) (x_1184 R_0) (x_1185 R_0) (x_7 R_0) (x_1212 R_0) (x_1213 R_0))
	(plus_1 (Plus_0 (Plus_0 x_1212 x_1213) (Seq_0 x_1184 x_1185)) (Plus_0 x_1212 x_1213) (Seq_0 x_1184 x_1185))))
(assert (forall ((x_8 R_0) (x_1184 R_0) (x_1185 R_0) (x_7 R_0) (x_1214 R_0) (x_1215 R_0))
	(plus_1 (Plus_0 (Seq_0 x_1214 x_1215) (Seq_0 x_1184 x_1185)) (Seq_0 x_1214 x_1215) (Seq_0 x_1184 x_1185))))
(assert (forall ((x_8 R_0) (x_1184 R_0) (x_1185 R_0) (x_7 R_0) (x_1216 R_0))
	(plus_1 (Plus_0 (Star_0 x_1216) (Seq_0 x_1184 x_1185)) (Star_0 x_1216) (Seq_0 x_1184 x_1185))))
(assert (forall ((x_8 R_0) (x_1186 R_0) (x_7 R_0) (x_1217 A_0))
	(plus_1 (Plus_0 (Atom_0 x_1217) (Star_0 x_1186)) (Atom_0 x_1217) (Star_0 x_1186))))
(assert (forall ((x_8 R_0) (x_1186 R_0) (x_7 R_0))
	(plus_1 (Plus_0 Eps_0 (Star_0 x_1186)) Eps_0 (Star_0 x_1186))))
(assert (forall ((x_8 R_0) (x_1186 R_0) (x_7 R_0) (x_1218 R_0) (x_1219 R_0))
	(plus_1 (Plus_0 (Plus_0 x_1218 x_1219) (Star_0 x_1186)) (Plus_0 x_1218 x_1219) (Star_0 x_1186))))
(assert (forall ((x_8 R_0) (x_1186 R_0) (x_7 R_0) (x_1220 R_0) (x_1221 R_0))
	(plus_1 (Plus_0 (Seq_0 x_1220 x_1221) (Star_0 x_1186)) (Seq_0 x_1220 x_1221) (Star_0 x_1186))))
(assert (forall ((x_8 R_0) (x_1186 R_0) (x_7 R_0) (x_1222 R_0))
	(plus_1 (Plus_0 (Star_0 x_1222) (Star_0 x_1186)) (Star_0 x_1222) (Star_0 x_1186))))
(assert (eqA_0 true_0 Y_0 Y_0))
(assert (eqA_0 false_0 Y_0 X_0))
(assert (eqA_0 false_0 X_0 Y_0))
(assert (eqA_0 true_0 X_0 X_0))
(assert (forall ((y_4 R_0))
	(eps_1 true_0 (Star_0 y_4))))
(assert (forall ((x_2041 Bool_0) (x_2042 Bool_0) (x_2043 Bool_0) (r_1 R_0) (q_1 R_0))
	(=> (and (eps_1 x_2042 r_1) (eps_1 x_2043 q_1) (and_0 x_2041 x_2042 x_2043)) (eps_1 x_2041 (Seq_0 r_1 q_1)))))
(assert (forall ((x_2044 Bool_0) (x_2045 Bool_0) (x_2046 Bool_0) (p_0 R_0) (q_0 R_0))
	(=> (and (eps_1 x_2045 p_0) (eps_1 x_2046 q_0) (or_0 x_2044 x_2045 x_2046)) (eps_1 x_2044 (Plus_0 p_0 q_0)))))
(assert (eps_1 true_0 Eps_0))
(assert (forall ((x_11 R_0) (x_1223 A_0))
	(eps_1 false_0 (Atom_0 x_1223))))
(assert (forall ((x_11 R_0))
	(eps_1 false_0 Nil_0)))
(assert (forall ((x_12 R_0))
	(=> (eps_1 true_0 x_12) (epsR_0 Eps_0 x_12))))
(assert (forall ((x_2052 Bool_0) (x_12 R_0))
	(=> (and (diseqBool_0 x_2052 true_0) (eps_1 x_2052 x_12)) (epsR_0 Nil_0 x_12))))
(assert (forall ((x_2054 R_0) (x_2055 R_0) (p_2 R_0) (y_5 A_0))
	(=> (and (step_0 x_2055 p_2 y_5) (seq_1 x_2054 x_2055 (Star_0 p_2))) (step_0 x_2054 (Star_0 p_2) y_5))))
(assert (forall ((x_2057 R_0) (x_2058 R_0) (x_2059 R_0) (x_2060 R_0) (x_2061 R_0) (x_2062 R_0) (r_2 R_0) (q_3 R_0) (y_5 A_0))
	(=> (and (step_0 x_2058 r_2 y_5) (seq_1 x_2059 x_2058 q_3) (epsR_0 x_2060 r_2) (step_0 x_2061 q_3 y_5) (seq_1 x_2062 x_2060 x_2061) (plus_1 x_2057 x_2059 x_2062)) (step_0 x_2057 (Seq_0 r_2 q_3) y_5))))
(assert (forall ((x_2064 R_0) (x_2065 R_0) (x_2066 R_0) (p_1 R_0) (q_2 R_0) (y_5 A_0))
	(=> (and (step_0 x_2065 p_1 y_5) (step_0 x_2066 q_2 y_5) (plus_1 x_2064 x_2065 x_2066)) (step_0 x_2064 (Plus_0 p_1 q_2) y_5))))
(assert (forall ((a_1 A_0) (y_5 A_0))
	(=> (eqA_0 true_0 a_1 y_5) (step_0 Eps_0 (Atom_0 a_1) y_5))))
(assert (forall ((x_2070 Bool_0) (a_1 A_0) (y_5 A_0))
	(=> (and (diseqBool_0 x_2070 true_0) (eqA_0 x_2070 a_1 y_5)) (step_0 Nil_0 (Atom_0 a_1) y_5))))
(assert (forall ((x_14 R_0) (y_5 A_0))
	(step_0 Nil_0 Eps_0 y_5)))
(assert (forall ((x_14 R_0) (y_5 A_0))
	(step_0 Nil_0 Nil_0 y_5)))
(assert (forall ((x_2074 Bool_0) (x_2075 R_0) (z_0 A_0) (xs_0 list_0) (x_15 R_0))
	(=> (and (step_0 x_2075 x_15 z_0) (recognise_0 x_2074 x_2075 xs_0)) (recognise_0 x_2074 x_15 (cons_0 z_0 xs_0)))))
(assert (forall ((x_2077 Bool_0) (x_15 R_0))
	(=> (eps_1 x_2077 x_15) (recognise_0 x_2077 x_15 nil_1))))
(assert (forall ((x_2079 R_0) (p_4 R_0))
	(=> (deeps_0 x_2079 p_4) (deeps_0 x_2079 (Star_0 p_4)))))
(assert (forall ((x_2084 R_0) (x_2085 R_0) (r_3 R_0) (q_5 R_0))
	(=> (and (deeps_0 x_2084 r_3) (deeps_0 x_2085 q_5) (eps_1 true_0 q_5) (eps_1 true_0 r_3)) (deeps_0 (Plus_0 x_2084 x_2085) (Seq_0 r_3 q_5)))))
(assert (forall ((x_2086 Bool_0) (r_3 R_0) (q_5 R_0))
	(=> (and (diseqBool_0 x_2086 true_0) (eps_1 x_2086 r_3)) (deeps_0 (Seq_0 r_3 q_5) (Seq_0 r_3 q_5)))))
(assert (forall ((x_2091 R_0) (x_2092 R_0) (r_3 R_0) (q_5 R_0))
	(=> (and (deeps_0 x_2091 r_3) (deeps_0 x_2092 q_5) (eps_1 true_0 q_5) (eps_1 true_0 r_3)) (deeps_0 (Plus_0 x_2091 x_2092) (Seq_0 r_3 q_5)))))
(assert (forall ((x_2093 Bool_0) (r_3 R_0) (q_5 R_0))
	(=> (and (diseqBool_0 x_2093 true_0) (eps_1 x_2093 q_5)) (deeps_0 (Seq_0 r_3 q_5) (Seq_0 r_3 q_5)))))
(assert (forall ((x_2096 R_0) (x_2097 R_0) (p_3 R_0) (q_4 R_0))
	(=> (and (deeps_0 x_2096 p_3) (deeps_0 x_2097 q_4)) (deeps_0 (Plus_0 x_2096 x_2097) (Plus_0 p_3 q_4)))))
(assert (forall ((a_2 A_0))
	(deeps_0 (Atom_0 a_2) (Atom_0 a_2))))
(assert (deeps_0 Nil_0 Eps_0))
(assert (deeps_0 Nil_0 Nil_0))
(assert (forall ((x_2101 Bool_0) (x_2102 R_0) (x_2103 Bool_0) (p_5 R_0) (s_0 list_0))
	(=> (and (diseqBool_0 x_2101 x_2103) (recognise_0 x_2101 (Star_0 p_5) s_0) (deeps_0 x_2102 p_5) (recognise_0 x_2103 (Star_0 x_2102) s_0)) false)))
(check-sat)
(get-model)
